42123 37248 
41857 37637 
42052 37362 
41786 37751 
41981 37459 
41264 38412 
41694 37831 
41428 38220 
41142 38535 
41623 37945 
41357 38334 
40723 39000 
39877 39651 
40516 39138 
40109 39447 
41036 38641 
40262 39247 
40002 39483 
39835 39655 
40635 39093 
40428 39231 
39931 39597 
40304 39232 
40210 39298 
40887 38808 
38416 40601 
39198 40089 
38876 40308 
39485 39992 
38937 40272 
37690 41011 
39250 40038 
39652 39820 
38226 40694 
39314 40022 
38785 40379 
38191 40733 
38660 40563 
38058 40850 
37652 41042 
38444 40591 
39261 40027 
39567 39867 
38992 40241 
39148 40111 
38844 40311 
36998 41184 
37417 41054 
39226 40079 
39774 39729 
36763 41196 
36493 41305 
35708 41359 
36614 41273 
36258 41317 
34525 41382 
